p tw 29 39
1 4
2 3
2 7
3 8
4 5
5 6
6 7
6 10
7 8
7 11
8 9
8 12
9 13
10 11
10 16
11 12
11 17
12 13
13 18
14 15
14 19
15 16
15 20
16 17
17 21
18 23
19 20
19 24
20 25
21 22
21 27
22 23
22 28
23 29
24 25
25 26
26 27
27 28
28 29
